# Escenario generado automaticamente: adr_extremo

param alpha := 0.5;
param fecha_hoy := 45984;
param s := 100;

set I := P1 P2 P3 P4 P5 P6 P7 P8 P9 P10 P11 P12 P13 P14 P15 P16 P17 P18 P19 P20 P21 P22 P23 P24 P25 P26 P27 P28 P29 P30 P31 P32 P33 P34 P35 P36 P37 P38 P39 P40 P41 P42 P43 P44 P45 P46 P47 P48 P49 P50 P51 P52 P53 P54 P55 P56 P57 P58 P59 P60 P61 P62 P63 P64 P65 P66 P67 P68 P69 P70 P71 P72 P73 P74 P75 P76 P77 P78 P79 P80 P81 P82 P83 P84 P85 P86 P87 P88 P89 P90 P91 P92 P93 P94 P95 P96 P97 P98 P99 P100 P101 P102 P103 P104 P105 P106 P107 P108 P109 P110 P111 P112 P113 P114 P115 P116 P117 P118 P119 P120 P121 P122 P123 P124 P125 P126 P127 P128 P129 P130 P131 P132 P133 P134 P135 P136 P137 P138 P139 P140 P141 P142 P143 P144 P145 P146 P147 P148 P149 P150 P151 P152 P153 P154 P155 P156 P157 P158 P159 P160 P161 P162 P163 P164 P165 P166 P167 P168 P169 P170 P171 P172 P173 P174 P175 P176 P177 P178 P179 P180 P181 P182 P183 P184 P185 P186 P187 P188 P189 P190 P191 P192 P193 P194 P195 P196 P197 P198 P199 P200;
set C := C1 C2 C3 C4 C5 C6 C7 C8 C9 C10 C11 C12 C13 C14 C15;
set J := T1 T2 T3 T4 T5 T6 T7 T8 T9 T10 T11 T12 T13 T14 T15;

param dist_c :=
  'C1' 45
  'C2' 21
  'C3' 96
  'C4' 79
  'C5' 43
  'C6' 34
  'C7' 31
  'C8' 8
  'C9' 32
  'C10' 28
  'C11' 81
  'C12' 20
  'C13' 66
  'C14' 33
  'C15' 46
;

param F :=
  'T1' 350
  'T2' 350
  'T3' 550
  'T4' 700
  'T5' 350
  'T6' 550
  'T7' 550
  'T8' 550
  'T9' 350
  'T10' 700
  'T11' 550
  'T12' 550
  'T13' 350
  'T14' 700
  'T15' 350
;
param ADRmax :=
  'T1' 0
  'T2' 0
  'T3' 0
  'T4' 5
  'T5' 0
  'T6' 0
  'T7' 0
  'T8' 0
  'T9' 0
  'T10' 5
  'T11' 0
  'T12' 0
  'T13' 0
  'T14' 5
  'T15' 0
;
param W :=
  'T1' 1000
  'T2' 1000
  'T3' 2500
  'T4' 3500
  'T5' 1000
  'T6' 2500
  'T7' 2500
  'T8' 2500
  'T9' 1000
  'T10' 3500
  'T11' 2500
  'T12' 2500
  'T13' 1000
  'T14' 3500
  'T15' 1000
;
param V :=
  'T1' 10
  'T2' 10
  'T3' 18
  'T4' 25
  'T5' 10
  'T6' 18
  'T7' 18
  'T8' 18
  'T9' 10
  'T10' 25
  'T11' 18
  'T12' 18
  'T13' 10
  'T14' 25
  'T15' 10
;
param Pmax :=
  'T1' 4
  'T2' 4
  'T3' 6
  'T4' 7
  'T5' 6
  'T6' 8
  'T7' 8
  'T8' 4
  'T9' 7
  'T10' 6
  'T11' 6
  'T12' 7
  'T13' 9
  'T14' 9
  'T15' 5
;

param pes :=
  'P1' 159
  'P2' 153
  'P3' 130
  'P4' 101
  'P5' 295
  'P6' 273
  'P7' 260
  'P8' 154
  'P9' 183
  'P10' 284
  'P11' 109
  'P12' 281
  'P13' 117
  'P14' 172
  'P15' 127
  'P16' 119
  'P17' 126
  'P18' 172
  'P19' 172
  'P20' 199
  'P21' 240
  'P22' 143
  'P23' 105
  'P24' 157
  'P25' 208
  'P26' 212
  'P27' 241
  'P28' 191
  'P29' 104
  'P30' 224
  'P31' 127
  'P32' 154
  'P33' 159
  'P34' 170
  'P35' 154
  'P36' 162
  'P37' 200
  'P38' 171
  'P39' 285
  'P40' 112
  'P41' 223
  'P42' 110
  'P43' 285
  'P44' 228
  'P45' 191
  'P46' 150
  'P47' 273
  'P48' 122
  'P49' 270
  'P50' 146
  'P51' 219
  'P52' 274
  'P53' 117
  'P54' 109
  'P55' 220
  'P56' 225
  'P57' 160
  'P58' 197
  'P59' 163
  'P60' 195
  'P61' 127
  'P62' 286
  'P63' 160
  'P64' 185
  'P65' 132
  'P66' 135
  'P67' 236
  'P68' 123
  'P69' 221
  'P70' 201
  'P71' 129
  'P72' 176
  'P73' 109
  'P74' 265
  'P75' 213
  'P76' 186
  'P77' 198
  'P78' 274
  'P79' 289
  'P80' 215
  'P81' 112
  'P82' 219
  'P83' 180
  'P84' 151
  'P85' 228
  'P86' 268
  'P87' 165
  'P88' 238
  'P89' 120
  'P90' 171
  'P91' 217
  'P92' 259
  'P93' 152
  'P94' 164
  'P95' 179
  'P96' 161
  'P97' 176
  'P98' 242
  'P99' 277
  'P100' 204
  'P101' 201
  'P102' 228
  'P103' 233
  'P104' 261
  'P105' 255
  'P106' 257
  'P107' 230
  'P108' 189
  'P109' 188
  'P110' 265
  'P111' 148
  'P112' 104
  'P113' 268
  'P114' 238
  'P115' 206
  'P116' 259
  'P117' 176
  'P118' 149
  'P119' 158
  'P120' 203
  'P121' 151
  'P122' 217
  'P123' 252
  'P124' 117
  'P125' 297
  'P126' 224
  'P127' 206
  'P128' 120
  'P129' 248
  'P130' 184
  'P131' 252
  'P132' 255
  'P133' 178
  'P134' 160
  'P135' 249
  'P136' 176
  'P137' 146
  'P138' 293
  'P139' 243
  'P140' 204
  'P141' 123
  'P142' 165
  'P143' 206
  'P144' 281
  'P145' 118
  'P146' 123
  'P147' 209
  'P148' 217
  'P149' 116
  'P150' 120
  'P151' 112
  'P152' 287
  'P153' 294
  'P154' 198
  'P155' 126
  'P156' 105
  'P157' 177
  'P158' 194
  'P159' 280
  'P160' 204
  'P161' 191
  'P162' 252
  'P163' 159
  'P164' 258
  'P165' 105
  'P166' 143
  'P167' 197
  'P168' 110
  'P169' 130
  'P170' 125
  'P171' 209
  'P172' 232
  'P173' 246
  'P174' 222
  'P175' 198
  'P176' 252
  'P177' 192
  'P178' 109
  'P179' 211
  'P180' 115
  'P181' 275
  'P182' 237
  'P183' 162
  'P184' 261
  'P185' 218
  'P186' 123
  'P187' 214
  'P188' 233
  'P189' 139
  'P190' 131
  'P191' 264
  'P192' 291
  'P193' 155
  'P194' 238
  'P195' 206
  'P196' 144
  'P197' 139
  'P198' 160
  'P199' 284
  'P200' 239
;
param vol :=
  'P1' 3
  'P2' 1
  'P3' 1
  'P4' 3
  'P5' 1
  'P6' 3
  'P7' 3
  'P8' 3
  'P9' 2
  'P10' 3
  'P11' 3
  'P12' 3
  'P13' 3
  'P14' 1
  'P15' 2
  'P16' 2
  'P17' 3
  'P18' 2
  'P19' 3
  'P20' 1
  'P21' 1
  'P22' 1
  'P23' 3
  'P24' 3
  'P25' 2
  'P26' 1
  'P27' 2
  'P28' 2
  'P29' 1
  'P30' 2
  'P31' 3
  'P32' 3
  'P33' 3
  'P34' 3
  'P35' 2
  'P36' 3
  'P37' 3
  'P38' 3
  'P39' 2
  'P40' 2
  'P41' 2
  'P42' 3
  'P43' 2
  'P44' 3
  'P45' 3
  'P46' 3
  'P47' 3
  'P48' 2
  'P49' 2
  'P50' 2
  'P51' 3
  'P52' 2
  'P53' 1
  'P54' 2
  'P55' 3
  'P56' 1
  'P57' 3
  'P58' 3
  'P59' 1
  'P60' 3
  'P61' 1
  'P62' 2
  'P63' 1
  'P64' 3
  'P65' 2
  'P66' 1
  'P67' 1
  'P68' 1
  'P69' 3
  'P70' 2
  'P71' 1
  'P72' 2
  'P73' 1
  'P74' 1
  'P75' 1
  'P76' 3
  'P77' 1
  'P78' 1
  'P79' 3
  'P80' 3
  'P81' 1
  'P82' 1
  'P83' 2
  'P84' 2
  'P85' 3
  'P86' 2
  'P87' 1
  'P88' 1
  'P89' 3
  'P90' 3
  'P91' 1
  'P92' 1
  'P93' 2
  'P94' 3
  'P95' 1
  'P96' 1
  'P97' 3
  'P98' 2
  'P99' 1
  'P100' 3
  'P101' 2
  'P102' 1
  'P103' 1
  'P104' 1
  'P105' 2
  'P106' 1
  'P107' 3
  'P108' 1
  'P109' 2
  'P110' 2
  'P111' 1
  'P112' 1
  'P113' 1
  'P114' 1
  'P115' 3
  'P116' 3
  'P117' 1
  'P118' 1
  'P119' 1
  'P120' 3
  'P121' 3
  'P122' 1
  'P123' 1
  'P124' 3
  'P125' 2
  'P126' 3
  'P127' 2
  'P128' 2
  'P129' 2
  'P130' 1
  'P131' 1
  'P132' 3
  'P133' 1
  'P134' 3
  'P135' 1
  'P136' 1
  'P137' 3
  'P138' 1
  'P139' 1
  'P140' 2
  'P141' 2
  'P142' 3
  'P143' 2
  'P144' 2
  'P145' 3
  'P146' 2
  'P147' 3
  'P148' 3
  'P149' 3
  'P150' 3
  'P151' 3
  'P152' 1
  'P153' 2
  'P154' 3
  'P155' 3
  'P156' 3
  'P157' 3
  'P158' 2
  'P159' 1
  'P160' 1
  'P161' 1
  'P162' 2
  'P163' 3
  'P164' 3
  'P165' 2
  'P166' 1
  'P167' 1
  'P168' 3
  'P169' 3
  'P170' 3
  'P171' 1
  'P172' 3
  'P173' 3
  'P174' 2
  'P175' 3
  'P176' 3
  'P177' 2
  'P178' 2
  'P179' 1
  'P180' 3
  'P181' 1
  'P182' 3
  'P183' 1
  'P184' 3
  'P185' 1
  'P186' 2
  'P187' 1
  'P188' 2
  'P189' 3
  'P190' 2
  'P191' 3
  'P192' 2
  'P193' 1
  'P194' 3
  'P195' 1
  'P196' 3
  'P197' 1
  'P198' 1
  'P199' 3
  'P200' 2
;
param adr :=
  'P1' 1
  'P2' 0
  'P3' 0
  'P4' 0
  'P5' 0
  'P6' 0
  'P7' 1
  'P8' 1
  'P9' 1
  'P10' 0
  'P11' 1
  'P12' 0
  'P13' 1
  'P14' 0
  'P15' 0
  'P16' 0
  'P17' 0
  'P18' 1
  'P19' 1
  'P20' 1
  'P21' 1
  'P22' 1
  'P23' 0
  'P24' 1
  'P25' 1
  'P26' 1
  'P27' 0
  'P28' 1
  'P29' 1
  'P30' 1
  'P31' 1
  'P32' 0
  'P33' 0
  'P34' 1
  'P35' 0
  'P36' 0
  'P37' 0
  'P38' 1
  'P39' 1
  'P40' 0
  'P41' 0
  'P42' 0
  'P43' 1
  'P44' 1
  'P45' 1
  'P46' 0
  'P47' 1
  'P48' 1
  'P49' 0
  'P50' 0
  'P51' 0
  'P52' 0
  'P53' 0
  'P54' 0
  'P55' 1
  'P56' 0
  'P57' 1
  'P58' 1
  'P59' 1
  'P60' 0
  'P61' 0
  'P62' 1
  'P63' 1
  'P64' 1
  'P65' 1
  'P66' 1
  'P67' 0
  'P68' 1
  'P69' 0
  'P70' 1
  'P71' 1
  'P72' 1
  'P73' 1
  'P74' 0
  'P75' 0
  'P76' 1
  'P77' 1
  'P78' 1
  'P79' 1
  'P80' 1
  'P81' 0
  'P82' 1
  'P83' 1
  'P84' 1
  'P85' 1
  'P86' 1
  'P87' 0
  'P88' 1
  'P89' 0
  'P90' 0
  'P91' 0
  'P92' 1
  'P93' 1
  'P94' 1
  'P95' 1
  'P96' 1
  'P97' 1
  'P98' 0
  'P99' 1
  'P100' 1
  'P101' 1
  'P102' 0
  'P103' 1
  'P104' 0
  'P105' 0
  'P106' 1
  'P107' 1
  'P108' 0
  'P109' 1
  'P110' 1
  'P111' 0
  'P112' 0
  'P113' 1
  'P114' 1
  'P115' 1
  'P116' 1
  'P117' 0
  'P118' 0
  'P119' 0
  'P120' 1
  'P121' 0
  'P122' 1
  'P123' 1
  'P124' 1
  'P125' 1
  'P126' 1
  'P127' 1
  'P128' 0
  'P129' 0
  'P130' 0
  'P131' 1
  'P132' 1
  'P133' 0
  'P134' 0
  'P135' 1
  'P136' 1
  'P137' 0
  'P138' 0
  'P139' 0
  'P140' 0
  'P141' 0
  'P142' 1
  'P143' 1
  'P144' 1
  'P145' 0
  'P146' 0
  'P147' 1
  'P148' 1
  'P149' 1
  'P150' 1
  'P151' 1
  'P152' 1
  'P153' 0
  'P154' 1
  'P155' 1
  'P156' 1
  'P157' 1
  'P158' 1
  'P159' 0
  'P160' 0
  'P161' 1
  'P162' 0
  'P163' 0
  'P164' 0
  'P165' 1
  'P166' 1
  'P167' 1
  'P168' 1
  'P169' 1
  'P170' 1
  'P171' 0
  'P172' 1
  'P173' 1
  'P174' 1
  'P175' 0
  'P176' 1
  'P177' 0
  'P178' 1
  'P179' 0
  'P180' 0
  'P181' 1
  'P182' 1
  'P183' 0
  'P184' 1
  'P185' 1
  'P186' 1
  'P187' 0
  'P188' 0
  'P189' 1
  'P190' 1
  'P191' 1
  'P192' 0
  'P193' 1
  'P194' 0
  'P195' 0
  'P196' 0
  'P197' 0
  'P198' 0
  'P199' 1
  'P200' 0
;
param t :=
  'P1' 350
  'P2' 350
  'P3' 350
  'P4' 350
  'P5' 350
  'P6' 350
  'P7' 350
  'P8' 350
  'P9' 350
  'P10' 350
  'P11' 350
  'P12' 350
  'P13' 350
  'P14' 350
  'P15' 350
  'P16' 350
  'P17' 350
  'P18' 350
  'P19' 350
  'P20' 350
  'P21' 350
  'P22' 350
  'P23' 350
  'P24' 350
  'P25' 350
  'P26' 350
  'P27' 350
  'P28' 350
  'P29' 350
  'P30' 350
  'P31' 350
  'P32' 350
  'P33' 350
  'P34' 350
  'P35' 350
  'P36' 350
  'P37' 350
  'P38' 350
  'P39' 350
  'P40' 350
  'P41' 350
  'P42' 350
  'P43' 350
  'P44' 350
  'P45' 350
  'P46' 350
  'P47' 350
  'P48' 350
  'P49' 350
  'P50' 350
  'P51' 350
  'P52' 350
  'P53' 350
  'P54' 350
  'P55' 350
  'P56' 350
  'P57' 350
  'P58' 350
  'P59' 350
  'P60' 350
  'P61' 350
  'P62' 350
  'P63' 350
  'P64' 350
  'P65' 350
  'P66' 350
  'P67' 350
  'P68' 350
  'P69' 350
  'P70' 350
  'P71' 350
  'P72' 350
  'P73' 350
  'P74' 350
  'P75' 350
  'P76' 350
  'P77' 350
  'P78' 350
  'P79' 350
  'P80' 350
  'P81' 350
  'P82' 350
  'P83' 350
  'P84' 350
  'P85' 350
  'P86' 350
  'P87' 350
  'P88' 350
  'P89' 350
  'P90' 350
  'P91' 350
  'P92' 350
  'P93' 350
  'P94' 350
  'P95' 350
  'P96' 350
  'P97' 350
  'P98' 350
  'P99' 350
  'P100' 350
  'P101' 350
  'P102' 350
  'P103' 350
  'P104' 350
  'P105' 350
  'P106' 350
  'P107' 350
  'P108' 350
  'P109' 350
  'P110' 350
  'P111' 350
  'P112' 350
  'P113' 350
  'P114' 350
  'P115' 350
  'P116' 350
  'P117' 350
  'P118' 350
  'P119' 350
  'P120' 350
  'P121' 350
  'P122' 350
  'P123' 350
  'P124' 350
  'P125' 350
  'P126' 350
  'P127' 350
  'P128' 350
  'P129' 350
  'P130' 350
  'P131' 350
  'P132' 350
  'P133' 350
  'P134' 350
  'P135' 350
  'P136' 350
  'P137' 350
  'P138' 350
  'P139' 350
  'P140' 350
  'P141' 350
  'P142' 350
  'P143' 350
  'P144' 350
  'P145' 350
  'P146' 350
  'P147' 350
  'P148' 350
  'P149' 350
  'P150' 350
  'P151' 350
  'P152' 350
  'P153' 350
  'P154' 350
  'P155' 350
  'P156' 350
  'P157' 350
  'P158' 350
  'P159' 350
  'P160' 350
  'P161' 350
  'P162' 350
  'P163' 350
  'P164' 350
  'P165' 350
  'P166' 350
  'P167' 350
  'P168' 350
  'P169' 350
  'P170' 350
  'P171' 350
  'P172' 350
  'P173' 350
  'P174' 350
  'P175' 350
  'P176' 350
  'P177' 350
  'P178' 350
  'P179' 350
  'P180' 350
  'P181' 350
  'P182' 350
  'P183' 350
  'P184' 350
  'P185' 350
  'P186' 350
  'P187' 350
  'P188' 350
  'P189' 350
  'P190' 350
  'P191' 350
  'P192' 350
  'P193' 350
  'P194' 350
  'P195' 350
  'P196' 350
  'P197' 350
  'P198' 350
  'P199' 350
  'P200' 350
;
param fecha :=
  'P1' 45984
  'P2' 45984
  'P3' 45985
  'P4' 45984
  'P5' 45984
  'P6' 45984
  'P7' 45984
  'P8' 45984
  'P9' 45984
  'P10' 45984
  'P11' 45984
  'P12' 45984
  'P13' 45985
  'P14' 45984
  'P15' 45984
  'P16' 45985
  'P17' 45984
  'P18' 45985
  'P19' 45984
  'P20' 45984
  'P21' 45984
  'P22' 45985
  'P23' 45984
  'P24' 45984
  'P25' 45984
  'P26' 45984
  'P27' 45984
  'P28' 45985
  'P29' 45985
  'P30' 45984
  'P31' 45984
  'P32' 45985
  'P33' 45985
  'P34' 45984
  'P35' 45984
  'P36' 45984
  'P37' 45985
  'P38' 45985
  'P39' 45985
  'P40' 45984
  'P41' 45985
  'P42' 45984
  'P43' 45985
  'P44' 45985
  'P45' 45985
  'P46' 45984
  'P47' 45984
  'P48' 45984
  'P49' 45984
  'P50' 45985
  'P51' 45985
  'P52' 45984
  'P53' 45984
  'P54' 45985
  'P55' 45984
  'P56' 45984
  'P57' 45984
  'P58' 45984
  'P59' 45984
  'P60' 45985
  'P61' 45984
  'P62' 45985
  'P63' 45984
  'P64' 45985
  'P65' 45984
  'P66' 45985
  'P67' 45984
  'P68' 45984
  'P69' 45985
  'P70' 45984
  'P71' 45984
  'P72' 45984
  'P73' 45984
  'P74' 45984
  'P75' 45984
  'P76' 45985
  'P77' 45984
  'P78' 45984
  'P79' 45985
  'P80' 45985
  'P81' 45984
  'P82' 45985
  'P83' 45985
  'P84' 45984
  'P85' 45985
  'P86' 45984
  'P87' 45984
  'P88' 45985
  'P89' 45985
  'P90' 45985
  'P91' 45985
  'P92' 45985
  'P93' 45984
  'P94' 45984
  'P95' 45984
  'P96' 45985
  'P97' 45984
  'P98' 45984
  'P99' 45985
  'P100' 45984
  'P101' 45985
  'P102' 45984
  'P103' 45984
  'P104' 45984
  'P105' 45984
  'P106' 45985
  'P107' 45984
  'P108' 45985
  'P109' 45984
  'P110' 45985
  'P111' 45985
  'P112' 45985
  'P113' 45984
  'P114' 45984
  'P115' 45984
  'P116' 45984
  'P117' 45984
  'P118' 45984
  'P119' 45985
  'P120' 45984
  'P121' 45985
  'P122' 45984
  'P123' 45984
  'P124' 45984
  'P125' 45984
  'P126' 45984
  'P127' 45985
  'P128' 45984
  'P129' 45984
  'P130' 45984
  'P131' 45984
  'P132' 45984
  'P133' 45984
  'P134' 45984
  'P135' 45984
  'P136' 45985
  'P137' 45985
  'P138' 45985
  'P139' 45984
  'P140' 45984
  'P141' 45985
  'P142' 45985
  'P143' 45984
  'P144' 45984
  'P145' 45984
  'P146' 45985
  'P147' 45985
  'P148' 45984
  'P149' 45984
  'P150' 45984
  'P151' 45985
  'P152' 45985
  'P153' 45985
  'P154' 45984
  'P155' 45984
  'P156' 45985
  'P157' 45984
  'P158' 45984
  'P159' 45984
  'P160' 45985
  'P161' 45984
  'P162' 45984
  'P163' 45984
  'P164' 45985
  'P165' 45984
  'P166' 45984
  'P167' 45985
  'P168' 45984
  'P169' 45984
  'P170' 45984
  'P171' 45984
  'P172' 45985
  'P173' 45985
  'P174' 45984
  'P175' 45984
  'P176' 45984
  'P177' 45984
  'P178' 45984
  'P179' 45984
  'P180' 45984
  'P181' 45984
  'P182' 45985
  'P183' 45985
  'P184' 45984
  'P185' 45984
  'P186' 45984
  'P187' 45984
  'P188' 45985
  'P189' 45984
  'P190' 45985
  'P191' 45984
  'P192' 45985
  'P193' 45985
  'P194' 45984
  'P195' 45984
  'P196' 45985
  'P197' 45984
  'P198' 45985
  'P199' 45984
  'P200' 45985
;
param cli :=
  'P1' 'C3'
  'P2' 'C8'
  'P3' 'C2'
  'P4' 'C5'
  'P5' 'C1'
  'P6' 'C14'
  'P7' 'C3'
  'P8' 'C5'
  'P9' 'C14'
  'P10' 'C7'
  'P11' 'C12'
  'P12' 'C1'
  'P13' 'C10'
  'P14' 'C14'
  'P15' 'C4'
  'P16' 'C7'
  'P17' 'C1'
  'P18' 'C1'
  'P19' 'C1'
  'P20' 'C3'
  'P21' 'C4'
  'P22' 'C2'
  'P23' 'C15'
  'P24' 'C13'
  'P25' 'C12'
  'P26' 'C7'
  'P27' 'C2'
  'P28' 'C2'
  'P29' 'C13'
  'P30' 'C15'
  'P31' 'C12'
  'P32' 'C15'
  'P33' 'C8'
  'P34' 'C1'
  'P35' 'C6'
  'P36' 'C14'
  'P37' 'C1'
  'P38' 'C2'
  'P39' 'C2'
  'P40' 'C10'
  'P41' 'C12'
  'P42' 'C14'
  'P43' 'C15'
  'P44' 'C14'
  'P45' 'C13'
  'P46' 'C11'
  'P47' 'C4'
  'P48' 'C7'
  'P49' 'C6'
  'P50' 'C13'
  'P51' 'C4'
  'P52' 'C7'
  'P53' 'C15'
  'P54' 'C12'
  'P55' 'C14'
  'P56' 'C4'
  'P57' 'C9'
  'P58' 'C5'
  'P59' 'C14'
  'P60' 'C14'
  'P61' 'C9'
  'P62' 'C13'
  'P63' 'C5'
  'P64' 'C1'
  'P65' 'C10'
  'P66' 'C10'
  'P67' 'C2'
  'P68' 'C11'
  'P69' 'C9'
  'P70' 'C4'
  'P71' 'C1'
  'P72' 'C10'
  'P73' 'C15'
  'P74' 'C9'
  'P75' 'C4'
  'P76' 'C6'
  'P77' 'C13'
  'P78' 'C11'
  'P79' 'C9'
  'P80' 'C3'
  'P81' 'C10'
  'P82' 'C9'
  'P83' 'C5'
  'P84' 'C12'
  'P85' 'C6'
  'P86' 'C11'
  'P87' 'C6'
  'P88' 'C7'
  'P89' 'C10'
  'P90' 'C14'
  'P91' 'C7'
  'P92' 'C13'
  'P93' 'C1'
  'P94' 'C2'
  'P95' 'C5'
  'P96' 'C15'
  'P97' 'C3'
  'P98' 'C15'
  'P99' 'C7'
  'P100' 'C9'
  'P101' 'C12'
  'P102' 'C14'
  'P103' 'C5'
  'P104' 'C7'
  'P105' 'C9'
  'P106' 'C8'
  'P107' 'C11'
  'P108' 'C14'
  'P109' 'C2'
  'P110' 'C8'
  'P111' 'C4'
  'P112' 'C13'
  'P113' 'C5'
  'P114' 'C10'
  'P115' 'C2'
  'P116' 'C7'
  'P117' 'C1'
  'P118' 'C11'
  'P119' 'C4'
  'P120' 'C1'
  'P121' 'C2'
  'P122' 'C13'
  'P123' 'C5'
  'P124' 'C13'
  'P125' 'C9'
  'P126' 'C6'
  'P127' 'C12'
  'P128' 'C5'
  'P129' 'C4'
  'P130' 'C10'
  'P131' 'C10'
  'P132' 'C1'
  'P133' 'C14'
  'P134' 'C4'
  'P135' 'C5'
  'P136' 'C12'
  'P137' 'C2'
  'P138' 'C10'
  'P139' 'C13'
  'P140' 'C3'
  'P141' 'C13'
  'P142' 'C7'
  'P143' 'C11'
  'P144' 'C5'
  'P145' 'C9'
  'P146' 'C10'
  'P147' 'C6'
  'P148' 'C8'
  'P149' 'C2'
  'P150' 'C3'
  'P151' 'C14'
  'P152' 'C15'
  'P153' 'C4'
  'P154' 'C5'
  'P155' 'C8'
  'P156' 'C13'
  'P157' 'C11'
  'P158' 'C8'
  'P159' 'C12'
  'P160' 'C11'
  'P161' 'C12'
  'P162' 'C10'
  'P163' 'C5'
  'P164' 'C1'
  'P165' 'C7'
  'P166' 'C4'
  'P167' 'C4'
  'P168' 'C10'
  'P169' 'C1'
  'P170' 'C7'
  'P171' 'C2'
  'P172' 'C2'
  'P173' 'C13'
  'P174' 'C9'
  'P175' 'C5'
  'P176' 'C7'
  'P177' 'C8'
  'P178' 'C5'
  'P179' 'C14'
  'P180' 'C14'
  'P181' 'C6'
  'P182' 'C12'
  'P183' 'C12'
  'P184' 'C14'
  'P185' 'C7'
  'P186' 'C5'
  'P187' 'C1'
  'P188' 'C7'
  'P189' 'C8'
  'P190' 'C11'
  'P191' 'C4'
  'P192' 'C9'
  'P193' 'C2'
  'P194' 'C6'
  'P195' 'C12'
  'P196' 'C7'
  'P197' 'C15'
  'P198' 'C1'
  'P199' 'C4'
  'P200' 'C6'
;
